\Problem name: Mochila 0-1

Minimize
OBJROW: -10 x0 -13 x1 -18 x2 -31 x3 -7 x4 -15 x5
Subject To
constr(0):  11 x0 + 15 x1 + 20 x2 + 35 x3 + 10 x4 + 33 x5 <= 47
Bounds
 0 <= x0 <= 1
 0 <= x1 <= 1
 0 <= x2 <= 1
 0 <= x3 <= 1
 0 <= x4 <= 1
 0 <= x5 <= 1
Integers
x0 x1 x2 x3 x4 x5 
End
